50
4778

218 919
855 882
802 569
28 253
580 980
518 49
660 878
732 298
637 666
565 483
811 14
849 321
232 351
293 894
239 931
302 429
625 881
404 303
302 358
185 75
262 312
925 394
746 781
805 209
189 563
274 364
961 405
789 960
230 2
398 266
726 895
396 413
257 738
736 485
987 276
833 458
377 921
537 651
888 917
443 225
63 704
842 665
328 535
720 624
667 568
818 372
341 243
805 936
5 857
95 893
